p cnf 960 2463
51 -693 -694 0
-51 693 0
-51 694 0
52 -51 -3 0
-52 51 0
-52 3 0
53 -5 -695 0
-53 5 0
-53 695 0
54 -53 -2 0
-54 53 0
-54 2 0
55 -696 -697 0
-55 696 0
-55 697 0
56 -698 -699 0
-56 698 0
-56 699 0
57 -56 -8 0
-57 56 0
-57 8 0
58 -700 -55 0
-58 700 0
-58 55 0
59 -10 -701 0
-59 10 0
-59 701 0
60 -59 -702 0
-60 59 0
-60 702 0
61 -703 -58 0
-61 703 0
-61 58 0
62 -13 -12 0
-62 13 0
-62 12 0
63 -62 -14 0
-63 62 0
-63 14 0
64 -704 -61 0
-64 704 0
-64 61 0
65 -705 -1 0
-65 705 0
-65 1 0
66 -65 -16 0
-66 65 0
-66 16 0
67 -706 -64 0
-67 706 0
-67 64 0
68 -707 -708 0
-68 707 0
-68 708 0
69 -68 -15 0
-69 68 0
-69 15 0
70 -709 -67 0
-70 709 0
-70 67 0
71 -18 -710 0
-71 18 0
-71 710 0
72 -71 -711 0
-72 71 0
-72 711 0
73 -712 -70 0
-73 712 0
-73 70 0
74 -20 -15 0
-74 20 0
-74 15 0
75 -74 -21 0
-75 74 0
-75 21 0
76 -713 -73 0
-76 713 0
-76 73 0
77 -714 -22 0
-77 714 0
-77 22 0
78 -77 -702 0
-78 77 0
-78 702 0
79 -715 -76 0
-79 715 0
-79 76 0
80 -716 -717 0
-80 716 0
-80 717 0
81 -80 -25 0
-81 80 0
-81 25 0
82 -718 -79 0
-82 718 0
-82 79 0
83 -719 -14 0
-83 719 0
-83 14 0
84 -83 -693 0
-84 83 0
-84 693 0
85 -720 -82 0
-85 720 0
-85 82 0
86 -27 -8 0
-86 27 0
-86 8 0
87 -86 -28 0
-87 86 0
-87 28 0
88 -721 -85 0
-88 721 0
-88 85 0
89 -29 -722 0
-89 29 0
-89 722 0
90 -89 -723 0
-90 89 0
-90 723 0
91 -724 -88 0
-91 724 0
-91 88 0
92 -12 -701 0
-92 12 0
-92 701 0
93 -92 -725 0
-93 92 0
-93 725 0
94 -726 -91 0
-94 726 0
-94 91 0
95 -727 -23 0
-95 727 0
-95 23 0
96 -95 -11 0
-96 95 0
-96 11 0
97 -728 -94 0
-97 728 0
-97 94 0
98 -729 -6 0
-98 729 0
-98 6 0
99 -98 -730 0
-99 98 0
-99 730 0
100 -731 -97 0
-100 731 0
-100 97 0
101 -723 -13 0
-101 723 0
-101 13 0
102 -101 -705 0
-102 101 0
-102 705 0
103 -732 -100 0
-103 732 0
-103 100 0
104 -723 -19 0
-104 723 0
-104 19 0
105 -104 -733 0
-105 104 0
-105 733 0
106 -734 -103 0
-106 734 0
-106 103 0
107 -714 -13 0
-107 714 0
-107 13 0
108 -107 -32 0
-108 107 0
-108 32 0
109 -735 -106 0
-109 735 0
-109 106 0
110 -20 -6 0
-110 20 0
-110 6 0
111 -110 -736 0
-111 110 0
-111 736 0
112 -737 -109 0
-112 737 0
-112 109 0
113 -23 -717 0
-113 23 0
-113 717 0
114 -113 -738 0
-114 113 0
-114 738 0
115 -739 -112 0
-115 739 0
-115 112 0
116 -13 -717 0
-116 13 0
-116 717 0
117 -116 -740 0
-117 116 0
-117 740 0
118 -741 -115 0
-118 741 0
-118 115 0
119 -742 -729 0
-119 742 0
-119 729 0
120 -119 -16 0
-120 119 0
-120 16 0
121 -743 -118 0
-121 743 0
-121 118 0
122 -36 -20 0
-122 36 0
-122 20 0
123 -122 -9 0
-123 122 0
-123 9 0
124 -744 -121 0
-124 744 0
-124 121 0
125 -745 -9 0
-125 745 0
-125 9 0
126 -125 -693 0
-126 125 0
-126 693 0
127 -746 -124 0
-127 746 0
-127 124 0
128 -747 -716 0
-128 747 0
-128 716 0
129 -128 -32 0
-129 128 0
-129 32 0
130 -748 -127 0
-130 748 0
-130 127 0
131 -749 -750 0
-131 749 0
-131 750 0
132 -131 -751 0
-132 131 0
-132 751 0
133 -752 -130 0
-133 752 0
-133 130 0
134 -753 -1 0
-134 753 0
-134 1 0
135 -134 -35 0
-135 134 0
-135 35 0
136 -754 -133 0
-136 754 0
-136 133 0
137 -41 -736 0
-137 41 0
-137 736 0
138 -137 -733 0
-138 137 0
-138 733 0
139 -755 -136 0
-139 755 0
-139 136 0
140 -26 -17 0
-140 26 0
-140 17 0
141 -140 -745 0
-141 140 0
-141 745 0
142 -756 -139 0
-142 756 0
-142 139 0
143 -749 -757 0
-143 749 0
-143 757 0
144 -143 -758 0
-144 143 0
-144 758 0
145 -759 -142 0
-145 759 0
-145 142 0
146 -24 -20 0
-146 24 0
-146 20 0
147 -146 -42 0
-147 146 0
-147 42 0
148 -760 -145 0
-148 760 0
-148 145 0
149 -6 -694 0
-149 6 0
-149 694 0
150 -149 -43 0
-150 149 0
-150 43 0
151 -761 -148 0
-151 761 0
-151 148 0
152 -44 -10 0
-152 44 0
-152 10 0
153 -152 -2 0
-153 152 0
-153 2 0
154 -762 -151 0
-154 762 0
-154 151 0
155 -763 -16 0
-155 763 0
-155 16 0
156 -155 -3 0
-156 155 0
-156 3 0
157 -764 -154 0
-157 764 0
-157 154 0
158 -89 -45 0
-158 89 0
-158 45 0
159 -765 -157 0
-159 765 0
-159 157 0
160 -13 -701 0
-160 13 0
-160 701 0
161 -160 -766 0
-161 160 0
-161 766 0
162 -767 -159 0
-162 767 0
-162 159 0
163 -768 -29 0
-163 768 0
-163 29 0
164 -163 -733 0
-164 163 0
-164 733 0
165 -769 -162 0
-165 769 0
-165 162 0
166 -730 -7 0
-166 730 0
-166 7 0
167 -166 -770 0
-167 166 0
-167 770 0
168 -771 -165 0
-168 771 0
-168 165 0
169 -740 -4 0
-169 740 0
-169 4 0
170 -169 -770 0
-170 169 0
-170 770 0
171 -772 -168 0
-171 772 0
-171 168 0
172 -27 -716 0
-172 27 0
-172 716 0
173 -172 -745 0
-173 172 0
-173 745 0
174 -773 -171 0
-174 773 0
-174 171 0
175 -719 -717 0
-175 719 0
-175 717 0
176 -175 -770 0
-176 175 0
-176 770 0
177 -774 -174 0
-177 774 0
-177 174 0
178 -775 -7 0
-178 775 0
-178 7 0
179 -178 -736 0
-179 178 0
-179 736 0
180 -776 -177 0
-180 776 0
-180 177 0
181 -32 -30 0
-181 32 0
-181 30 0
182 -181 -42 0
-182 181 0
-182 42 0
183 -777 -180 0
-183 777 0
-183 180 0
184 -768 -717 0
-184 768 0
-184 717 0
185 -184 -736 0
-185 184 0
-185 736 0
186 -778 -183 0
-186 778 0
-186 183 0
187 -779 -714 0
-187 779 0
-187 714 0
188 -187 -2 0
-188 187 0
-188 2 0
189 -780 -186 0
-189 780 0
-189 186 0
190 -723 -20 0
-190 723 0
-190 20 0
191 -190 -781 0
-191 190 0
-191 781 0
192 -782 -189 0
-192 782 0
-192 189 0
193 -39 -31 0
-193 39 0
-193 31 0
194 -193 -15 0
-194 193 0
-194 15 0
195 -783 -192 0
-195 783 0
-195 192 0
196 -749 -23 0
-196 749 0
-196 23 0
197 -196 -33 0
-197 196 0
-197 33 0
198 -784 -195 0
-198 784 0
-198 195 0
199 -42 -775 0
-199 42 0
-199 775 0
200 -199 -770 0
-200 199 0
-200 770 0
201 -785 -198 0
-201 785 0
-201 198 0
202 -47 -763 0
-202 47 0
-202 763 0
203 -202 -733 0
-203 202 0
-203 733 0
204 -786 -201 0
-204 786 0
-204 201 0
205 -722 -698 0
-205 722 0
-205 698 0
206 -205 -723 0
-206 205 0
-206 723 0
207 -787 -204 0
-207 787 0
-207 204 0
208 -41 -730 0
-208 41 0
-208 730 0
209 -208 -725 0
-209 208 0
-209 725 0
210 -788 -207 0
-210 788 0
-210 207 0
211 -753 -722 0
-211 753 0
-211 722 0
212 -211 -751 0
-212 211 0
-212 751 0
213 -789 -210 0
-213 789 0
-213 210 0
214 -749 -747 0
-214 749 0
-214 747 0
215 -214 -29 0
-215 214 0
-215 29 0
216 -790 -213 0
-216 790 0
-216 213 0
217 -791 -4 0
-217 791 0
-217 4 0
218 -217 -781 0
-218 217 0
-218 781 0
219 -792 -216 0
-219 792 0
-219 216 0
220 -35 -7 0
-220 35 0
-220 7 0
221 -220 -11 0
-221 220 0
-221 11 0
222 -793 -219 0
-222 793 0
-222 219 0
223 -42 -13 0
-223 42 0
-223 13 0
224 -223 -794 0
-224 223 0
-224 794 0
225 -795 -222 0
-225 795 0
-225 222 0
226 -31 -24 0
-226 31 0
-226 24 0
227 -226 -693 0
-227 226 0
-227 693 0
228 -796 -225 0
-228 796 0
-228 225 0
229 -41 -40 0
-229 41 0
-229 40 0
230 -229 -3 0
-230 229 0
-230 3 0
231 -797 -228 0
-231 797 0
-231 228 0
232 -41 -6 0
-232 41 0
-232 6 0
233 -232 -14 0
-233 232 0
-233 14 0
234 -798 -231 0
-234 798 0
-234 231 0
235 -22 -1 0
-235 22 0
-235 1 0
236 -235 -37 0
-236 235 0
-236 37 0
237 -799 -234 0
-237 799 0
-237 234 0
238 -757 -30 0
-238 757 0
-238 30 0
239 -238 -800 0
-239 238 0
-239 800 0
240 -801 -237 0
-240 801 0
-240 237 0
241 -705 -701 0
-241 705 0
-241 701 0
242 -241 -711 0
-242 241 0
-242 711 0
243 -802 -240 0
-243 802 0
-243 240 0
244 -36 -717 0
-244 36 0
-244 717 0
245 -244 -753 0
-245 244 0
-245 753 0
246 -803 -243 0
-246 803 0
-246 243 0
247 -23 -5 0
-247 23 0
-247 5 0
248 -247 -40 0
-248 247 0
-248 40 0
249 -804 -246 0
-249 804 0
-249 246 0
250 -50 -18 0
-250 50 0
-250 18 0
251 -250 -43 0
-251 250 0
-251 43 0
252 -805 -249 0
-252 805 0
-252 249 0
253 -31 -22 0
-253 31 0
-253 22 0
254 -253 -45 0
-254 253 0
-254 45 0
255 -806 -252 0
-255 806 0
-255 252 0
256 -9 -695 0
-256 9 0
-256 695 0
257 -256 -8 0
-257 256 0
-257 8 0
258 -807 -255 0
-258 807 0
-258 255 0
259 -30 -9 0
-259 30 0
-259 9 0
260 -259 -34 0
-260 259 0
-260 34 0
261 -808 -258 0
-261 808 0
-261 258 0
262 -714 -4 0
-262 714 0
-262 4 0
263 -262 -27 0
-263 262 0
-263 27 0
264 -809 -261 0
-264 809 0
-264 261 0
265 -41 -10 0
-265 41 0
-265 10 0
266 -265 -49 0
-266 265 0
-266 49 0
267 -810 -264 0
-267 810 0
-267 264 0
268 -727 -811 0
-268 727 0
-268 811 0
269 -268 -711 0
-269 268 0
-269 711 0
270 -812 -267 0
-270 812 0
-270 267 0
271 -18 -813 0
-271 18 0
-271 813 0
272 -271 -32 0
-272 271 0
-272 32 0
273 -814 -270 0
-273 814 0
-273 270 0
274 -42 -707 0
-274 42 0
-274 707 0
275 -274 -738 0
-275 274 0
-275 738 0
276 -815 -273 0
-276 815 0
-276 273 0
277 -749 -707 0
-277 749 0
-277 707 0
278 -277 -27 0
-278 277 0
-278 27 0
279 -816 -276 0
-279 816 0
-279 276 0
280 -41 -16 0
-280 41 0
-280 16 0
281 -280 -21 0
-281 280 0
-281 21 0
282 -817 -279 0
-282 817 0
-282 279 0
283 -730 -708 0
-283 730 0
-283 708 0
284 -283 -818 0
-284 283 0
-284 818 0
285 -819 -282 0
-285 819 0
-285 282 0
286 -152 -34 0
-286 152 0
-286 34 0
287 -820 -285 0
-287 820 0
-287 285 0
288 -24 -9 0
-288 24 0
-288 9 0
289 -288 -27 0
-289 288 0
-289 27 0
290 -821 -287 0
-290 821 0
-290 287 0
291 -811 -822 0
-291 811 0
-291 822 0
292 -291 -818 0
-292 291 0
-292 818 0
293 -823 -290 0
-293 823 0
-293 290 0
294 -750 -775 0
-294 750 0
-294 775 0
295 -294 -13 0
-295 294 0
-295 13 0
296 -824 -293 0
-296 824 0
-296 293 0
297 -791 -723 0
-297 791 0
-297 723 0
298 -297 -16 0
-298 297 0
-298 16 0
299 -825 -296 0
-299 825 0
-299 296 0
300 -23 -19 0
-300 23 0
-300 19 0
301 -300 -3 0
-301 300 0
-301 3 0
302 -826 -299 0
-302 826 0
-302 299 0
303 -23 -708 0
-303 23 0
-303 708 0
304 -303 -34 0
-304 303 0
-304 34 0
305 -827 -302 0
-305 827 0
-305 302 0
306 -716 -13 0
-306 716 0
-306 13 0
307 -306 -35 0
-307 306 0
-307 35 0
308 -828 -305 0
-308 828 0
-308 305 0
309 -16 -695 0
-309 16 0
-309 695 0
310 -309 -28 0
-310 309 0
-310 28 0
311 -829 -308 0
-311 829 0
-311 308 0
312 -708 -6 0
-312 708 0
-312 6 0
313 -312 -781 0
-313 312 0
-313 781 0
314 -830 -311 0
-314 830 0
-314 311 0
315 -768 -716 0
-315 768 0
-315 716 0
316 -315 -3 0
-316 315 0
-316 3 0
317 -831 -314 0
-317 831 0
-317 314 0
318 -23 -13 0
-318 23 0
-318 13 0
319 -318 -47 0
-319 318 0
-319 47 0
320 -832 -317 0
-320 832 0
-320 317 0
321 -35 -1 0
-321 35 0
-321 1 0
322 -321 -833 0
-322 321 0
-322 833 0
323 -834 -320 0
-323 834 0
-323 320 0
324 -208 -2 0
-324 208 0
-324 2 0
325 -835 -323 0
-325 835 0
-325 323 0
326 -723 -22 0
-326 723 0
-326 22 0
327 -326 -16 0
-327 326 0
-327 16 0
328 -836 -325 0
-328 836 0
-328 325 0
329 -768 -18 0
-329 768 0
-329 18 0
330 -329 -705 0
-330 329 0
-330 705 0
331 -837 -328 0
-331 837 0
-331 328 0
332 -811 -20 0
-332 811 0
-332 20 0
333 -332 -733 0
-333 332 0
-333 733 0
334 -838 -331 0
-334 838 0
-334 331 0
335 -39 -742 0
-335 39 0
-335 742 0
336 -335 -48 0
-336 335 0
-336 48 0
337 -839 -334 0
-337 839 0
-337 334 0
338 -83 -770 0
-338 83 0
-338 770 0
339 -840 -337 0
-339 840 0
-339 337 0
340 -822 -8 0
-340 822 0
-340 8 0
341 -340 -811 0
-341 340 0
-341 811 0
342 -841 -339 0
-342 841 0
-342 339 0
343 -4 -694 0
-343 4 0
-343 694 0
344 -343 -736 0
-344 343 0
-344 736 0
345 -842 -342 0
-345 842 0
-345 342 0
346 -768 -23 0
-346 768 0
-346 23 0
347 -346 -702 0
-347 346 0
-347 702 0
348 -843 -345 0
-348 843 0
-348 345 0
349 -35 -730 0
-349 35 0
-349 730 0
350 -349 -770 0
-350 349 0
-350 770 0
351 -844 -348 0
-351 844 0
-351 348 0
352 -733 -781 0
-352 733 0
-352 781 0
353 -352 -50 0
-353 352 0
-353 50 0
354 -845 -351 0
-354 845 0
-354 351 0
355 -33 -729 0
-355 33 0
-355 729 0
356 -355 -48 0
-356 355 0
-356 48 0
357 -846 -354 0
-357 846 0
-357 354 0
358 -714 -693 0
-358 714 0
-358 693 0
359 -358 -833 0
-359 358 0
-359 833 0
360 -847 -357 0
-360 847 0
-360 357 0
361 -775 -702 0
-361 775 0
-361 702 0
362 -361 -738 0
-362 361 0
-362 738 0
363 -848 -360 0
-363 848 0
-363 360 0
364 -791 -749 0
-364 791 0
-364 749 0
365 -364 -711 0
-365 364 0
-365 711 0
366 -849 -363 0
-366 849 0
-366 363 0
367 -707 -9 0
-367 707 0
-367 9 0
368 -367 -716 0
-368 367 0
-368 716 0
369 -850 -366 0
-369 850 0
-369 366 0
370 -300 -738 0
-370 300 0
-370 738 0
371 -851 -369 0
-371 851 0
-371 369 0
372 -30 -751 0
-372 30 0
-372 751 0
373 -372 -14 0
-373 372 0
-373 14 0
374 -852 -371 0
-374 852 0
-374 371 0
375 -25 -3 0
-375 25 0
-375 3 0
376 -375 -794 0
-376 375 0
-376 794 0
377 -853 -374 0
-377 853 0
-377 374 0
378 -781 -5 0
-378 781 0
-378 5 0
379 -378 -49 0
-379 378 0
-379 49 0
380 -854 -377 0
-380 854 0
-380 377 0
381 -31 -26 0
-381 31 0
-381 26 0
382 -381 -49 0
-382 381 0
-382 49 0
383 -855 -380 0
-383 855 0
-383 380 0
384 -727 -707 0
-384 727 0
-384 707 0
385 -384 -32 0
-385 384 0
-385 32 0
386 -856 -383 0
-386 856 0
-386 383 0
387 -247 -779 0
-387 247 0
-387 779 0
388 -857 -386 0
-388 857 0
-388 386 0
389 -24 -710 0
-389 24 0
-389 710 0
390 -389 -49 0
-390 389 0
-390 49 0
391 -858 -388 0
-391 858 0
-391 388 0
392 -775 -29 0
-392 775 0
-392 29 0
393 -392 -708 0
-393 392 0
-393 708 0
394 -859 -391 0
-394 859 0
-394 391 0
395 -766 -17 0
-395 766 0
-395 17 0
396 -395 -43 0
-396 395 0
-396 43 0
397 -860 -394 0
-397 860 0
-397 394 0
398 -23 -822 0
-398 23 0
-398 822 0
399 -398 -727 0
-399 398 0
-399 727 0
400 -861 -397 0
-400 861 0
-400 397 0
401 -781 -722 0
-401 781 0
-401 722 0
402 -401 -48 0
-402 401 0
-402 48 0
403 -862 -400 0
-403 862 0
-403 400 0
404 -38 -719 0
-404 38 0
-404 719 0
405 -404 -751 0
-405 404 0
-405 751 0
406 -863 -403 0
-406 863 0
-406 403 0
407 -32 -811 0
-407 32 0
-407 811 0
408 -407 -766 0
-408 407 0
-408 766 0
409 -864 -406 0
-409 864 0
-409 406 0
410 -779 -723 0
-410 779 0
-410 723 0
411 -410 -781 0
-411 410 0
-411 781 0
412 -865 -409 0
-412 865 0
-412 409 0
413 -723 -716 0
-413 723 0
-413 716 0
414 -413 -44 0
-414 413 0
-414 44 0
415 -866 -412 0
-415 866 0
-415 412 0
416 -17 -9 0
-416 17 0
-416 9 0
417 -416 -13 0
-417 416 0
-417 13 0
418 -867 -415 0
-418 867 0
-418 415 0
419 -736 -699 0
-419 736 0
-419 699 0
420 -419 -48 0
-420 419 0
-420 48 0
421 -868 -418 0
-421 868 0
-421 418 0
422 -714 -9 0
-422 714 0
-422 9 0
423 -422 -813 0
-423 422 0
-423 813 0
424 -869 -421 0
-424 869 0
-424 421 0
425 -770 -42 0
-425 770 0
-425 42 0
426 -425 -833 0
-426 425 0
-426 833 0
427 -870 -424 0
-427 870 0
-427 424 0
428 -28 -14 0
-428 28 0
-428 14 0
429 -428 -738 0
-429 428 0
-429 738 0
430 -871 -427 0
-430 871 0
-430 427 0
431 -37 -1 0
-431 37 0
-431 1 0
432 -431 -736 0
-432 431 0
-432 736 0
433 -872 -430 0
-433 872 0
-433 430 0
434 -25 -24 0
-434 25 0
-434 24 0
435 -434 -766 0
-435 434 0
-435 766 0
436 -873 -433 0
-436 873 0
-436 433 0
437 -749 -698 0
-437 749 0
-437 698 0
438 -437 -705 0
-438 437 0
-438 705 0
439 -874 -436 0
-439 874 0
-439 436 0
440 -5 -4 0
-440 5 0
-440 4 0
441 -440 -32 0
-441 440 0
-441 32 0
442 -875 -439 0
-442 875 0
-442 439 0
443 -35 -727 0
-443 35 0
-443 727 0
444 -443 -28 0
-444 443 0
-444 28 0
445 -876 -442 0
-445 876 0
-445 442 0
446 -35 -23 0
-446 35 0
-446 23 0
447 -446 -18 0
-447 446 0
-447 18 0
448 -877 -445 0
-448 877 0
-448 445 0
449 -750 -17 0
-449 750 0
-449 17 0
450 -449 -727 0
-450 449 0
-450 727 0
451 -878 -448 0
-451 878 0
-451 448 0
452 -24 -729 0
-452 24 0
-452 729 0
453 -452 -723 0
-453 452 0
-453 723 0
454 -879 -451 0
-454 879 0
-454 451 0
455 -813 -717 0
-455 813 0
-455 717 0
456 -455 -708 0
-456 455 0
-456 708 0
457 -880 -454 0
-457 880 0
-457 454 0
458 -763 -811 0
-458 763 0
-458 811 0
459 -458 -800 0
-459 458 0
-459 800 0
460 -881 -457 0
-460 881 0
-460 457 0
461 -437 -738 0
-461 437 0
-461 738 0
462 -882 -460 0
-462 882 0
-462 460 0
463 -26 -699 0
-463 26 0
-463 699 0
464 -463 -21 0
-464 463 0
-464 21 0
465 -883 -462 0
-465 883 0
-465 462 0
466 -7 -4 0
-466 7 0
-466 4 0
467 -466 -716 0
-467 466 0
-467 716 0
468 -884 -465 0
-468 884 0
-468 465 0
469 -31 -730 0
-469 31 0
-469 730 0
470 -469 -11 0
-470 469 0
-470 11 0
471 -885 -468 0
-471 885 0
-471 468 0
472 -40 -17 0
-472 40 0
-472 17 0
473 -472 -16 0
-473 472 0
-473 16 0
474 -886 -471 0
-474 886 0
-474 471 0
475 -30 -710 0
-475 30 0
-475 710 0
476 -475 -770 0
-476 475 0
-476 770 0
477 -887 -474 0
-477 887 0
-477 474 0
478 -30 -702 0
-478 30 0
-478 702 0
479 -478 -2 0
-479 478 0
-479 2 0
480 -888 -477 0
-480 888 0
-480 477 0
481 -742 -12 0
-481 742 0
-481 12 0
482 -481 -800 0
-482 481 0
-482 800 0
483 -889 -480 0
-483 889 0
-483 480 0
484 -822 -4 0
-484 822 0
-484 4 0
485 -484 -745 0
-485 484 0
-485 745 0
486 -890 -483 0
-486 890 0
-486 483 0
487 -740 -723 0
-487 740 0
-487 723 0
488 -487 -758 0
-488 487 0
-488 758 0
489 -891 -486 0
-489 891 0
-489 486 0
490 -710 -729 0
-490 710 0
-490 729 0
491 -490 -47 0
-491 490 0
-491 47 0
492 -892 -489 0
-492 892 0
-492 489 0
493 -710 -758 0
-493 710 0
-493 758 0
494 -493 -48 0
-494 493 0
-494 48 0
495 -893 -492 0
-495 893 0
-495 492 0
496 -35 -708 0
-496 35 0
-496 708 0
497 -496 -751 0
-497 496 0
-497 751 0
498 -894 -495 0
-498 894 0
-498 495 0
499 -729 -9 0
-499 729 0
-499 9 0
500 -499 -745 0
-500 499 0
-500 745 0
501 -895 -498 0
-501 895 0
-501 498 0
502 -23 -11 0
-502 23 0
-502 11 0
503 -502 -833 0
-503 502 0
-503 833 0
504 -896 -501 0
-504 896 0
-504 501 0
505 -32 -745 0
-505 32 0
-505 745 0
506 -505 -738 0
-506 505 0
-506 738 0
507 -897 -504 0
-507 897 0
-507 504 0
508 -40 -38 0
-508 40 0
-508 38 0
509 -508 -8 0
-509 508 0
-509 8 0
510 -898 -507 0
-510 898 0
-510 507 0
511 -727 -17 0
-511 727 0
-511 17 0
512 -511 -27 0
-512 511 0
-512 27 0
513 -899 -510 0
-513 899 0
-513 510 0
514 -45 -33 0
-514 45 0
-514 33 0
515 -514 -46 0
-515 514 0
-515 46 0
516 -900 -513 0
-516 900 0
-516 513 0
517 -41 -4 0
-517 41 0
-517 4 0
518 -517 -21 0
-518 517 0
-518 21 0
519 -901 -516 0
-519 901 0
-519 516 0
520 -40 -722 0
-520 40 0
-520 722 0
521 -520 -740 0
-521 520 0
-521 740 0
522 -902 -519 0
-522 902 0
-522 519 0
523 -26 -8 0
-523 26 0
-523 8 0
524 -523 -3 0
-524 523 0
-524 3 0
525 -903 -522 0
-525 903 0
-525 522 0
526 -766 -9 0
-526 766 0
-526 9 0
527 -526 -2 0
-527 526 0
-527 2 0
528 -904 -525 0
-528 904 0
-528 525 0
529 -38 -701 0
-529 38 0
-529 701 0
530 -529 -50 0
-530 529 0
-530 50 0
531 -905 -528 0
-531 905 0
-531 528 0
532 -33 -6 0
-532 33 0
-532 6 0
533 -532 -43 0
-533 532 0
-533 43 0
534 -906 -531 0
-534 906 0
-534 531 0
535 -747 -29 0
-535 747 0
-535 29 0
536 -535 -48 0
-536 535 0
-536 48 0
537 -907 -534 0
-537 907 0
-537 534 0
538 -45 -705 0
-538 45 0
-538 705 0
539 -538 -46 0
-539 538 0
-539 46 0
540 -908 -537 0
-540 908 0
-540 537 0
541 -37 -6 0
-541 37 0
-541 6 0
542 -541 -29 0
-542 541 0
-542 29 0
543 -909 -540 0
-543 909 0
-543 540 0
544 -33 -725 0
-544 33 0
-544 725 0
545 -544 -800 0
-545 544 0
-545 800 0
546 -910 -543 0
-546 910 0
-546 543 0
547 -768 -727 0
-547 768 0
-547 727 0
548 -547 -10 0
-548 547 0
-548 10 0
549 -911 -546 0
-549 911 0
-549 546 0
550 -749 -701 0
-550 749 0
-550 701 0
551 -550 -3 0
-551 550 0
-551 3 0
552 -912 -549 0
-552 912 0
-552 549 0
553 -244 -800 0
-553 244 0
-553 800 0
554 -913 -552 0
-554 913 0
-554 552 0
555 -740 -20 0
-555 740 0
-555 20 0
556 -555 -719 0
-556 555 0
-556 719 0
557 -914 -554 0
-557 914 0
-557 554 0
558 -811 -705 0
-558 811 0
-558 705 0
559 -558 -758 0
-559 558 0
-559 758 0
560 -915 -557 0
-560 915 0
-560 557 0
561 -727 -24 0
-561 727 0
-561 24 0
562 -561 -47 0
-562 561 0
-562 47 0
563 -916 -560 0
-563 916 0
-563 560 0
564 -20 -729 0
-564 20 0
-564 729 0
565 -564 -766 0
-565 564 0
-565 766 0
566 -917 -563 0
-566 917 0
-566 563 0
567 -104 -833 0
-567 104 0
-567 833 0
568 -918 -566 0
-568 918 0
-568 566 0
569 -745 -708 0
-569 745 0
-569 708 0
570 -569 -2 0
-570 569 0
-570 2 0
571 -919 -568 0
-571 919 0
-571 568 0
572 -42 -725 0
-572 42 0
-572 725 0
573 -572 -818 0
-573 572 0
-573 818 0
574 -920 -571 0
-574 920 0
-574 571 0
575 -38 -17 0
-575 38 0
-575 17 0
576 -575 -48 0
-576 575 0
-576 48 0
577 -921 -574 0
-577 921 0
-577 574 0
578 -44 -693 0
-578 44 0
-578 693 0
579 -578 -738 0
-579 578 0
-579 738 0
580 -922 -577 0
-580 922 0
-580 577 0
581 -41 -707 0
-581 41 0
-581 707 0
582 -581 -833 0
-582 581 0
-582 833 0
583 -923 -580 0
-583 923 0
-583 580 0
584 -775 -9 0
-584 775 0
-584 9 0
585 -584 -833 0
-585 584 0
-585 833 0
586 -924 -583 0
-586 924 0
-586 583 0
587 -367 -49 0
-587 367 0
-587 49 0
588 -925 -586 0
-588 925 0
-588 586 0
589 -723 -28 0
-589 723 0
-589 28 0
590 -589 -50 0
-590 589 0
-590 50 0
591 -926 -588 0
-591 926 0
-591 588 0
592 -768 -37 0
-592 768 0
-592 37 0
593 -592 -794 0
-593 592 0
-593 794 0
594 -927 -591 0
-594 927 0
-594 591 0
595 -768 -6 0
-595 768 0
-595 6 0
596 -595 -794 0
-596 595 0
-596 794 0
597 -928 -594 0
-597 928 0
-597 594 0
598 -17 -7 0
-598 17 0
-598 7 0
599 -598 -15 0
-599 598 0
-599 15 0
600 -929 -597 0
-600 929 0
-600 597 0
601 -818 -725 0
-601 818 0
-601 725 0
602 -601 -833 0
-602 601 0
-602 833 0
603 -930 -600 0
-603 930 0
-603 600 0
604 -27 -22 0
-604 27 0
-604 22 0
605 -604 -794 0
-605 604 0
-605 794 0
606 -931 -603 0
-606 931 0
-606 603 0
607 -740 -751 0
-607 740 0
-607 751 0
608 -607 -770 0
-608 607 0
-608 770 0
609 -932 -606 0
-609 932 0
-609 606 0
610 -24 -813 0
-610 24 0
-610 813 0
611 -610 -740 0
-611 610 0
-611 740 0
612 -933 -609 0
-612 933 0
-612 609 0
613 -23 -813 0
-613 23 0
-613 813 0
614 -613 -733 0
-614 613 0
-614 733 0
615 -934 -612 0
-615 934 0
-615 612 0
616 -750 -4 0
-616 750 0
-616 4 0
617 -616 -781 0
-617 616 0
-617 781 0
618 -935 -615 0
-618 935 0
-618 615 0
619 -749 -4 0
-619 749 0
-619 4 0
620 -619 -42 0
-620 619 0
-620 42 0
621 -936 -618 0
-621 936 0
-621 618 0
622 -12 -699 0
-622 12 0
-622 699 0
623 -622 -730 0
-623 622 0
-623 730 0
624 -937 -621 0
-624 937 0
-624 621 0
625 -502 -738 0
-625 502 0
-625 738 0
626 -938 -624 0
-626 938 0
-626 624 0
627 -30 -26 0
-627 30 0
-627 26 0
628 -627 -27 0
-628 627 0
-628 27 0
629 -939 -626 0
-629 939 0
-629 626 0
630 -747 -705 0
-630 747 0
-630 705 0
631 -630 -46 0
-631 630 0
-631 46 0
632 -940 -629 0
-632 940 0
-632 629 0
633 -727 -705 0
-633 727 0
-633 705 0
634 -633 -14 0
-634 633 0
-634 14 0
635 -941 -632 0
-635 941 0
-635 632 0
636 -750 -813 0
-636 750 0
-636 813 0
637 -636 -16 0
-637 636 0
-637 16 0
638 -942 -635 0
-638 942 0
-638 635 0
639 -42 -38 0
-639 42 0
-639 38 0
640 -639 -738 0
-640 639 0
-640 738 0
641 -943 -638 0
-641 943 0
-641 638 0
642 -749 -25 0
-642 749 0
-642 25 0
643 -642 -33 0
-643 642 0
-643 33 0
644 -944 -641 0
-644 944 0
-644 641 0
645 -714 -1 0
-645 714 0
-645 1 0
646 -645 -710 0
-646 645 0
-646 710 0
647 -945 -644 0
-647 945 0
-647 644 0
648 -750 -26 0
-648 750 0
-648 26 0
649 -648 -833 0
-649 648 0
-649 833 0
650 -946 -647 0
-650 946 0
-650 647 0
651 -40 -716 0
-651 40 0
-651 716 0
652 -651 -736 0
-652 651 0
-652 736 0
653 -947 -650 0
-653 947 0
-653 650 0
654 -32 -719 0
-654 32 0
-654 719 0
655 -654 -745 0
-655 654 0
-655 745 0
656 -948 -653 0
-656 948 0
-656 653 0
657 -730 -10 0
-657 730 0
-657 10 0
658 -657 -14 0
-658 657 0
-658 14 0
659 -949 -656 0
-659 949 0
-659 656 0
660 -37 -705 0
-660 37 0
-660 705 0
661 -660 -693 0
-661 660 0
-661 693 0
662 -950 -659 0
-662 950 0
-662 659 0
663 -39 -10 0
-663 39 0
-663 10 0
664 -663 -33 0
-664 663 0
-664 33 0
665 -951 -662 0
-665 951 0
-665 662 0
666 -31 -12 0
-666 31 0
-666 12 0
667 -666 -781 0
-667 666 0
-667 781 0
668 -952 -665 0
-668 952 0
-668 665 0
669 -716 -15 0
-669 716 0
-669 15 0
670 -669 -745 0
-670 669 0
-670 745 0
671 -953 -668 0
-671 953 0
-671 668 0
672 -730 -8 0
-672 730 0
-672 8 0
673 -672 -2 0
-673 672 0
-673 2 0
674 -954 -671 0
-674 954 0
-674 671 0
675 -822 -701 0
-675 822 0
-675 701 0
676 -675 -710 0
-676 675 0
-676 710 0
677 -955 -674 0
-677 955 0
-677 674 0
678 -730 -710 0
-678 730 0
-678 710 0
679 -678 -3 0
-679 678 0
-679 3 0
680 -956 -677 0
-680 956 0
-680 677 0
681 -719 -695 0
-681 719 0
-681 695 0
682 -681 -50 0
-682 681 0
-682 50 0
683 -957 -680 0
-683 957 0
-683 680 0
684 -781 -813 0
-684 781 0
-684 813 0
685 -684 -833 0
-685 684 0
-685 833 0
686 -958 -683 0
-686 958 0
-686 683 0
687 -38 -9 0
-687 38 0
-687 9 0
688 -687 -800 0
-688 687 0
-688 800 0
689 -959 -686 0
-689 959 0
-689 686 0
690 -41 -698 0
-690 41 0
-690 698 0
691 -690 -818 0
-691 690 0
-691 818 0
692 -960 -689 0
-692 960 0
-692 689 0
-693 -2 0
693 2 0
-694 -1 0
694 1 0
-695 -4 0
695 4 0
-696 -54 0
696 54 0
-697 -52 0
697 52 0
-698 -7 0
698 7 0
-699 -6 0
699 6 0
-700 -57 0
700 57 0
-701 -9 0
701 9 0
-702 -11 0
702 11 0
-703 -60 0
703 60 0
-704 -63 0
704 63 0
-705 -15 0
705 15 0
-706 -66 0
706 66 0
-707 -17 0
707 17 0
-708 -8 0
708 8 0
-709 -69 0
709 69 0
-710 -16 0
710 16 0
-711 -19 0
711 19 0
-712 -72 0
712 72 0
-713 -75 0
713 75 0
-714 -23 0
714 23 0
-715 -78 0
715 78 0
-716 -24 0
716 24 0
-717 -5 0
717 5 0
-718 -81 0
718 81 0
-719 -26 0
719 26 0
-720 -84 0
720 84 0
-721 -87 0
721 87 0
-722 -20 0
722 20 0
-723 -30 0
723 30 0
-724 -90 0
724 90 0
-725 -18 0
725 18 0
-726 -93 0
726 93 0
-727 -31 0
727 31 0
-728 -96 0
728 96 0
-729 -12 0
729 12 0
-730 -29 0
730 29 0
-731 -99 0
731 99 0
-732 -102 0
732 102 0
-733 -28 0
733 28 0
-734 -105 0
734 105 0
-735 -108 0
735 108 0
-736 -33 0
736 33 0
-737 -111 0
737 111 0
-738 -34 0
738 34 0
-739 -114 0
739 114 0
-740 -35 0
740 35 0
-741 -117 0
741 117 0
-742 -13 0
742 13 0
-743 -120 0
743 120 0
-744 -123 0
744 123 0
-745 -14 0
745 14 0
-746 -126 0
746 126 0
-747 -37 0
747 37 0
-748 -129 0
748 129 0
-749 -39 0
749 39 0
-750 -38 0
750 38 0
-751 -27 0
751 27 0
-752 -132 0
752 132 0
-753 -40 0
753 40 0
-754 -135 0
754 135 0
-755 -138 0
755 138 0
-756 -141 0
756 141 0
-757 -32 0
757 32 0
-758 -3 0
758 3 0
-759 -144 0
759 144 0
-760 -147 0
760 147 0
-761 -150 0
761 150 0
-762 -153 0
762 153 0
-763 -42 0
763 42 0
-764 -156 0
764 156 0
-765 -158 0
765 158 0
-766 -45 0
766 45 0
-767 -161 0
767 161 0
-768 -41 0
768 41 0
-769 -164 0
769 164 0
-770 -46 0
770 46 0
-771 -167 0
771 167 0
-772 -170 0
772 170 0
-773 -173 0
773 173 0
-774 -176 0
774 176 0
-775 -36 0
775 36 0
-776 -179 0
776 179 0
-777 -182 0
777 182 0
-778 -185 0
778 185 0
-779 -47 0
779 47 0
-780 -188 0
780 188 0
-781 -21 0
781 21 0
-782 -191 0
782 191 0
-783 -194 0
783 194 0
-784 -197 0
784 197 0
-785 -200 0
785 200 0
-786 -203 0
786 203 0
-787 -206 0
787 206 0
-788 -209 0
788 209 0
-789 -212 0
789 212 0
-790 -215 0
790 215 0
-791 -44 0
791 44 0
-792 -218 0
792 218 0
-793 -221 0
793 221 0
-794 -48 0
794 48 0
-795 -224 0
795 224 0
-796 -227 0
796 227 0
-797 -230 0
797 230 0
-798 -233 0
798 233 0
-799 -236 0
799 236 0
-800 -49 0
800 49 0
-801 -239 0
801 239 0
-802 -242 0
802 242 0
-803 -245 0
803 245 0
-804 -248 0
804 248 0
-805 -251 0
805 251 0
-806 -254 0
806 254 0
-807 -257 0
807 257 0
-808 -260 0
808 260 0
-809 -263 0
809 263 0
-810 -266 0
810 266 0
-811 -25 0
811 25 0
-812 -269 0
812 269 0
-813 -10 0
813 10 0
-814 -272 0
814 272 0
-815 -275 0
815 275 0
-816 -278 0
816 278 0
-817 -281 0
817 281 0
-818 -50 0
818 50 0
-819 -284 0
819 284 0
-820 -286 0
820 286 0
-821 -289 0
821 289 0
-822 -22 0
822 22 0
-823 -292 0
823 292 0
-824 -295 0
824 295 0
-825 -298 0
825 298 0
-826 -301 0
826 301 0
-827 -304 0
827 304 0
-828 -307 0
828 307 0
-829 -310 0
829 310 0
-830 -313 0
830 313 0
-831 -316 0
831 316 0
-832 -319 0
832 319 0
-833 -43 0
833 43 0
-834 -322 0
834 322 0
-835 -324 0
835 324 0
-836 -327 0
836 327 0
-837 -330 0
837 330 0
-838 -333 0
838 333 0
-839 -336 0
839 336 0
-840 -338 0
840 338 0
-841 -341 0
841 341 0
-842 -344 0
842 344 0
-843 -347 0
843 347 0
-844 -350 0
844 350 0
-845 -353 0
845 353 0
-846 -356 0
846 356 0
-847 -359 0
847 359 0
-848 -362 0
848 362 0
-849 -365 0
849 365 0
-850 -368 0
850 368 0
-851 -370 0
851 370 0
-852 -373 0
852 373 0
-853 -376 0
853 376 0
-854 -379 0
854 379 0
-855 -382 0
855 382 0
-856 -385 0
856 385 0
-857 -387 0
857 387 0
-858 -390 0
858 390 0
-859 -393 0
859 393 0
-860 -396 0
860 396 0
-861 -399 0
861 399 0
-862 -402 0
862 402 0
-863 -405 0
863 405 0
-864 -408 0
864 408 0
-865 -411 0
865 411 0
-866 -414 0
866 414 0
-867 -417 0
867 417 0
-868 -420 0
868 420 0
-869 -423 0
869 423 0
-870 -426 0
870 426 0
-871 -429 0
871 429 0
-872 -432 0
872 432 0
-873 -435 0
873 435 0
-874 -438 0
874 438 0
-875 -441 0
875 441 0
-876 -444 0
876 444 0
-877 -447 0
877 447 0
-878 -450 0
878 450 0
-879 -453 0
879 453 0
-880 -456 0
880 456 0
-881 -459 0
881 459 0
-882 -461 0
882 461 0
-883 -464 0
883 464 0
-884 -467 0
884 467 0
-885 -470 0
885 470 0
-886 -473 0
886 473 0
-887 -476 0
887 476 0
-888 -479 0
888 479 0
-889 -482 0
889 482 0
-890 -485 0
890 485 0
-891 -488 0
891 488 0
-892 -491 0
892 491 0
-893 -494 0
893 494 0
-894 -497 0
894 497 0
-895 -500 0
895 500 0
-896 -503 0
896 503 0
-897 -506 0
897 506 0
-898 -509 0
898 509 0
-899 -512 0
899 512 0
-900 -515 0
900 515 0
-901 -518 0
901 518 0
-902 -521 0
902 521 0
-903 -524 0
903 524 0
-904 -527 0
904 527 0
-905 -530 0
905 530 0
-906 -533 0
906 533 0
-907 -536 0
907 536 0
-908 -539 0
908 539 0
-909 -542 0
909 542 0
-910 -545 0
910 545 0
-911 -548 0
911 548 0
-912 -551 0
912 551 0
-913 -553 0
913 553 0
-914 -556 0
914 556 0
-915 -559 0
915 559 0
-916 -562 0
916 562 0
-917 -565 0
917 565 0
-918 -567 0
918 567 0
-919 -570 0
919 570 0
-920 -573 0
920 573 0
-921 -576 0
921 576 0
-922 -579 0
922 579 0
-923 -582 0
923 582 0
-924 -585 0
924 585 0
-925 -587 0
925 587 0
-926 -590 0
926 590 0
-927 -593 0
927 593 0
-928 -596 0
928 596 0
-929 -599 0
929 599 0
-930 -602 0
930 602 0
-931 -605 0
931 605 0
-932 -608 0
932 608 0
-933 -611 0
933 611 0
-934 -614 0
934 614 0
-935 -617 0
935 617 0
-936 -620 0
936 620 0
-937 -623 0
937 623 0
-938 -625 0
938 625 0
-939 -628 0
939 628 0
-940 -631 0
940 631 0
-941 -634 0
941 634 0
-942 -637 0
942 637 0
-943 -640 0
943 640 0
-944 -643 0
944 643 0
-945 -646 0
945 646 0
-946 -649 0
946 649 0
-947 -652 0
947 652 0
-948 -655 0
948 655 0
-949 -658 0
949 658 0
-950 -661 0
950 661 0
-951 -664 0
951 664 0
-952 -667 0
952 667 0
-953 -670 0
953 670 0
-954 -673 0
954 673 0
-955 -676 0
955 676 0
-956 -679 0
956 679 0
-957 -682 0
957 682 0
-958 -685 0
958 685 0
-959 -688 0
959 688 0
-960 -691 0
960 691 0
692 0
